88 142 124 182 145 158 177 78 85 138 141 84 21 132 193 173 157 131 61 68 12 104 43 111 82 122 189 165 5 130 181 109 162 34 128 103 30 36 129 186 125 155 117 195 151 178 76 28 94 91 77 102 136 23 89 53 1 105 118 184 17 67 164 185 16 70 176 39 116 13 188 169 139 6 58 83 160 90 44 192 146 190 0 199 54 115 123 140 7 98 2 37 35 168 147 55 180 148 66 149 107 8 72 49 87 48 79 135 121 42 198 167 57 133 159 9 63 172 3 19 120 71 93 110 14 196 31 119 163 52 96 197 18 62 41 56 99 26 127 80 64 150 73 171 156 126 134 81 25 108 86 106 69 97 166 75 29 27 194 175 10 33 101 60 50 92 59 183 174 32 46 170 45 179 38 74 22 137 153 20 154 4 15 114 24 191 187 144 40 143 112 152 100 161 113 11 47 51 65 95 

